400
1000
699
699
697
694
687
685
682
682
682
682
680
679
679
678
677
677
676
675
672
670
669
667
666
664
662
661
660
659
656
654
650
649
648
648
644
644
644
639
637
636
634
634
633
630
622
621
615
611
609
605
605
604
603
602
600
600
598
598
596
596
593
590
589
586
584
578
576
576
574
568
567
566
566
565
564
564
561
556
556
555
553
551
551
551
548
546
540
538
535
535
532
531
531
531
527
527
527
525
523
522
519
515
513
510
507
506
504
504
500
496
496
495
495
491
491
487
486
486
485
484
483
482
482
482
481
479
478
474
474
474
474
473
472
471
470
469
468
466
465
464
464
463
462
462
457
456
455
455
455
454
453
452
451
450
447
445
445
444
442
440
439
438
438
438
433
433
433
431
428
426
425
424
421
419
418
418
416
415
414
413
411
409
406
405
404
403
402
402
402
400
399
396
395
390
389
389
389
389
385
385
383
383
382
382
379
379
375
374
374
372
369
368
365
363
361
360
358
358
357
355
355
355
347
346
346
345
344
344
341
340
340
340
340
336
334
333
333
331
330
329
329
326
324
322
321
320
318
317
312
312
311
308
306
306
305
303
303
301
300
300
298
297
297
294
294
292
291
291
290
288
288
287
287
287
282
281
280
279
278
278
272
268
264
262
261
260
259
259
257
256
255
254
253
250
250
249
249
248
247
246
243
243
242
240
239
238
238
237
232
232
231
231
230
230
228
227
226
222
219
218
218
217
216
213
213
209
208
206
204
204
202
198
194
190
186
185
185
184
183
181
175
175
175
174
172
170
169
169
169
169
168
168
165
162
162
156
156
154
151
150
148
148
147
145
144
143
142
138
138
137
137
136
136
133
133
131
130
129
128
127
123
122
121
119
115
115
114
112
112
111
110
110
110
109
104
103
102
101
100
100
